* Problem:    opt1217-pow2-prescaled
* Class:      LP
* Rows:       64
* Columns:    785
* Non-zeros:  1558
* Format:     Free MPS
*
NAME opt1217-pow2-prescaled
ROWS
 N R0000000
 E R0000001
 E R0000002
 E R0000003
 E R0000004
 E R0000005
 E R0000006
 E R0000007
 E R0000008
 E R0000009
 E R0000010
 E R0000011
 E R0000012
 E R0000013
 E R0000014
 E R0000015
 E R0000016
 E R0000017
 E R0000018
 E R0000019
 E R0000020
 E R0000021
 E R0000022
 E R0000023
 E R0000024
 E R0000025
 E R0000026
 E R0000027
 E R0000028
 E R0000029
 E R0000030
 E R0000031
 E R0000032
 E R0000033
 E R0000034
 E R0000035
 E R0000036
 E R0000037
 E R0000038
 E R0000039
 E R0000040
 E R0000041
 E R0000042
 E R0000043
 E R0000044
 E R0000045
 E R0000046
 E R0000047
 E R0000048
 E R0000049
 E R0000050
 E R0000051
 E R0000052
 E R0000053
 E R0000054
 E R0000055
 E R0000056
 E R0000057
 E R0000058
 E R0000059
 E R0000060
 E R0000061
 E R0000062
 E R0000063
 E R0000064
COLUMNS
 c0 R0000000 -2 R0000064 2
 c0 R0000063 2 R0000062 2
 c0 R0000061 2 R0000060 2
 c0 R0000059 2 R0000058 2
 c0 R0000057 2 R0000056 2
 c0 R0000055 2 R0000054 2
 c0 R0000053 2 R0000052 2
 c0 R0000051 2 R0000050 2
 c0 R0000049 2
 c1 R0000049 -16 R0000001 4
 c2 R0000049 -4 R0000002 1
 c3 R0000049 -8 R0000003 2
 c4 R0000049 -4 R0000004 1
 c5 R0000049 -4 R0000005 1
 c6 R0000049 -4 R0000006 1
 c7 R0000049 -8 R0000007 2
 c8 R0000049 -2 R0000008 1
 c9 R0000049 -2 R0000009 1
 c10 R0000049 -16 R0000010 8
 c11 R0000049 -16 R0000011 8
 c12 R0000049 -16 R0000012 8
 c13 R0000049 -16 R0000013 8
 c14 R0000049 -4 R0000014 2
 c15 R0000049 -4 R0000015 2
 c16 R0000049 -2 R0000016 2
 c17 R0000049 -2 R0000018 2
 c18 R0000049 -2 R0000019 1
 c19 R0000049 -2 R0000020 1
 c20 R0000049 -4 R0000021 2
 c21 R0000049 -2 R0000022 1
 c22 R0000049 -16 R0000023 8
 c23 R0000049 -4 R0000024 2
 c24 R0000049 -8 R0000025 2
 c25 R0000049 -32 R0000026 8
 c26 R0000049 -4 R0000027 1
 c27 R0000049 -16 R0000028 4
 c28 R0000049 -4 R0000029 1
 c29 R0000049 -8 R0000030 4
 c30 R0000049 -8 R0000031 4
 c31 R0000049 -8 R0000032 4
 c32 R0000049 -4 R0000033 1
 c33 R0000049 -4 R0000034 1
 c34 R0000049 -6 R0000035 1
 c35 R0000049 -6 R0000036 1
 c36 R0000049 -6 R0000037 1
 c37 R0000049 -6 R0000038 1
 c38 R0000049 -8 R0000039 1
 c39 R0000049 -6 R0000040 1
 c40 R0000049 -12 R0000041 2
 c41 R0000049 -12 R0000042 2
 c42 R0000049 -12 R0000043 2
 c43 R0000049 -32 R0000044 8
 c44 R0000049 -64 R0000045 16
 c45 R0000049 -64 R0000046 16
 c46 R0000049 -4 R0000047 1
 c47 R0000049 -4 R0000048 1
 c48 R0000050 -64 R0000001 32
 c49 R0000050 -8 R0000002 4
 c50 R0000050 -16 R0000003 8
 c51 R0000050 -4 R0000004 1
 c52 R0000050 -16 R0000005 4
 c53 R0000050 -16 R0000006 4
 c54 R0000050 -16 R0000007 4
 c55 R0000050 -32 R0000008 8
 c56 R0000050 -16 R0000009 8
 c57 R0000050 -32 R0000010 8
 c58 R0000050 -32 R0000011 8
 c59 R0000050 -32 R0000012 8
 c60 R0000050 -16 R0000013 8
 c61 R0000050 -16 R0000014 8
 c62 R0000050 -32 R0000015 8
 c63 R0000050 -12 R0000016 2
 c64 R0000050 -12 R0000017 2
 c65 R0000050 -16 R0000018 4
 c66 R0000050 -32 R0000019 8
 c67 R0000050 -32 R0000020 8
 c68 R0000050 -128 R0000021 32
 c69 R0000050 -32 R0000022 8
 c70 R0000050 -16 R0000023 8
 c71 R0000050 -16 R0000024 16
 c72 R0000050 -16 R0000025 8
 c73 R0000050 -16 R0000026 4
 c74 R0000050 -16 R0000027 8
 c75 R0000050 -16 R0000028 8
 c76 R0000050 -16 R0000029 4
 c77 R0000050 -32 R0000030 8
 c78 R0000050 -32 R0000031 8
 c79 R0000050 -16 R0000032 8
 c80 R0000050 -16 R0000033 8
 c81 R0000050 -16 R0000034 4
 c82 R0000050 -32 R0000035 8
 c83 R0000050 -64 R0000036 16
 c84 R0000050 -64 R0000037 16
 c85 R0000050 -32 R0000038 8
 c86 R0000050 -16 R0000039 4
 c87 R0000050 -32 R0000040 8
 c88 R0000050 -32 R0000041 8
 c89 R0000050 -32 R0000042 8
 c90 R0000050 -32 R0000043 8
 c91 R0000050 -16 R0000044 8
 c92 R0000050 -16 R0000045 8
 c93 R0000050 -16 R0000046 4
 c94 R0000050 -16 R0000047 4
 c95 R0000050 -16 R0000048 4
 c96 R0000051 -2 R0000001 1
 c97 R0000051 -8 R0000002 2
 c98 R0000051 -8 R0000003 2
 c99 R0000051 -8 R0000004 2
 c100 R0000051 -12 R0000005 2
 c101 R0000051 -12 R0000006 2
 c102 R0000051 -12 R0000007 2
 c103 R0000051 -6 R0000008 1
 c104 R0000051 -6 R0000009 1
 c105 R0000051 -6 R0000010 1
 c106 R0000051 -6 R0000011 1
 c107 R0000051 -8 R0000012 2
 c108 R0000051 -8 R0000013 2
 c109 R0000051 -8 R0000014 2
 c110 R0000051 -8 R0000015 2
 c111 R0000051 -8 R0000016 2
 c112 R0000051 -32 R0000017 8
 c113 R0000051 -8 R0000018 2
 c114 R0000051 -8 R0000019 2
 c115 R0000051 -8 R0000020 4
 c116 R0000051 -32 R0000021 16
 c117 R0000051 -8 R0000022 8
 c118 R0000051 -8 R0000024 8
 c119 R0000051 -8 R0000025 4
 c120 R0000051 -8 R0000026 2
 c121 R0000051 -8 R0000027 2
 c122 R0000051 -12 R0000028 2
 c123 R0000051 -12 R0000029 2
 c124 R0000051 -6 R0000030 1
 c125 R0000051 -8 R0000031 2
 c126 R0000051 -8 R0000032 2
 c127 R0000051 -8 R0000033 4
 c128 R0000051 -8 R0000034 4
 c129 R0000051 -16 R0000035 8
 c130 R0000051 -32 R0000036 8
 c131 R0000051 -32 R0000037 8
 c132 R0000051 -16 R0000038 8
 c133 R0000051 -8 R0000039 4
 c134 R0000051 -32 R0000040 8
 c135 R0000051 -32 R0000041 8
 c136 R0000051 -32 R0000042 8
 c137 R0000051 -32 R0000043 8
 c138 R0000051 -8 R0000044 8
 c139 R0000051 -8 R0000045 4
 c140 R0000051 -8 R0000046 2
 c141 R0000051 -12 R0000047 2
 c142 R0000051 -12 R0000048 2
 c143 R0000052 -4 R0000001 1
 c144 R0000052 -16 R0000002 4
 c145 R0000052 -16 R0000003 4
 c146 R0000052 -16 R0000004 4
 c147 R0000052 -16 R0000005 4
 c148 R0000052 -16 R0000006 8
 c149 R0000052 -4 R0000007 4
 c150 R0000052 -16 R0000008 8
 c151 R0000052 -16 R0000009 4
 c152 R0000052 -16 R0000010 4
 c153 R0000052 -16 R0000011 4
 c154 R0000052 -16 R0000012 4
 c155 R0000052 -16 R0000013 4
 c156 R0000052 -24 R0000014 4
 c157 R0000052 -24 R0000015 4
 c158 R0000052 -12 R0000016 2
 c159 R0000052 -12 R0000017 2
 c160 R0000052 -12 R0000018 2
 c161 R0000052 -96 R0000019 16
 c162 R0000052 -24 R0000020 4
 c163 R0000052 -24 R0000021 4
 c164 R0000052 -24 R0000022 4
 c165 R0000052 -16 R0000023 4
 c166 R0000052 -16 R0000024 4
 c167 R0000052 -16 R0000025 4
 c168 R0000052 -16 R0000026 4
 c169 R0000052 -48 R0000027 8
 c170 R0000052 -16 R0000028 4
 c171 R0000052 -16 R0000029 4
 c172 R0000052 -16 R0000030 4
 c173 R0000052 -16 R0000031 8
 c174 R0000052 -16 R0000032 8
 c175 R0000052 -16 R0000033 4
 c176 R0000052 -96 R0000034 16
 c177 R0000052 -48 R0000035 8
 c178 R0000052 -12 R0000036 2
 c179 R0000052 -12 R0000037 2
 c180 R0000052 -12 R0000038 2
 c181 R0000052 -16 R0000039 4
 c182 R0000052 -32 R0000040 8
 c183 R0000052 -12 R0000041 2
 c184 R0000052 -12 R0000042 2
 c185 R0000052 -12 R0000043 2
 c186 R0000052 -48 R0000044 8
 c187 R0000052 -16 R0000045 4
 c188 R0000052 -16 R0000046 8
 c189 R0000052 -16 R0000047 8
 c190 R0000052 -16 R0000048 8
 c191 R0000053 -6 R0000001 1
 c192 R0000053 -24 R0000002 4
 c193 R0000053 -96 R0000003 16
 c194 R0000053 -24 R0000004 4
 c195 R0000053 -32 R0000005 8
 c196 R0000053 -32 R0000006 8
 c197 R0000053 -32 R0000007 8
 c198 R0000053 -64 R0000008 16
 c199 R0000053 -64 R0000009 16
 c200 R0000053 -64 R0000010 16
 c201 R0000053 -24 R0000011 4
 c202 R0000053 -24 R0000012 4
 c203 R0000053 -24 R0000013 4
 c204 R0000053 -24 R0000014 4
 c205 R0000053 -24 R0000015 4
 c206 R0000053 -24 R0000016 4
 c207 R0000053 -48 R0000017 8
 c208 R0000053 -24 R0000018 4
 c209 R0000053 -24 R0000019 4
 c210 R0000053 -64 R0000020 16
 c211 R0000053 -64 R0000021 16
 c212 R0000053 -64 R0000022 16
 c213 R0000053 -32 R0000023 16
 c214 R0000053 -32 R0000024 16
 c215 R0000053 -8 R0000025 4
 c216 R0000053 -4 R0000026 4
 c217 R0000053 -4 R0000027 4
 c218 R0000053 -8 R0000028 4
 c219 R0000053 -8 R0000029 4
 c220 R0000053 -32 R0000030 16
 c221 R0000053 -32 R0000031 16
 c222 R0000053 -32 R0000032 16
 c223 R0000053 -8 R0000033 4
 c224 R0000053 -8 R0000034 4
 c225 R0000053 -4 R0000035 2
 c226 R0000053 -4 R0000036 2
 c227 R0000053 -4 R0000037 2
 c228 R0000053 -4 R0000038 2
 c229 R0000053 -4 R0000039 2
 c230 R0000053 -4 R0000040 2
 c231 R0000053 -4 R0000041 2
 c232 R0000053 -4 R0000042 2
 c233 R0000053 -4 R0000043 2
 c234 R0000053 -8 R0000044 4
 c235 R0000053 -8 R0000045 4
 c236 R0000053 -8 R0000046 4
 c237 R0000053 -8 R0000047 4
 c238 R0000053 -8 R0000048 4
 c239 R0000054 -2 R0000001 1
 c240 R0000054 -8 R0000002 4
 c241 R0000054 -8 R0000003 4
 c242 R0000054 -8 R0000004 4
 c243 R0000054 -8 R0000005 4
 c244 R0000054 -8 R0000006 8
 c245 R0000054 -8 R0000007 8
 c246 R0000054 -8 R0000008 8
 c247 R0000054 -8 R0000009 8
 c248 R0000054 -8 R0000014 8
 c249 R0000054 -8 R0000015 8
 c250 R0000054 -8 R0000016 8
 c251 R0000054 -16 R0000017 8
 c252 R0000054 -8 R0000018 4
 c253 R0000054 -8 R0000019 4
 c254 R0000054 -8 R0000020 4
 c255 R0000054 -8 R0000021 4
 c256 R0000054 -8 R0000022 4
 c257 R0000054 -8 R0000023 4
 c258 R0000054 -8 R0000024 4
 c259 R0000054 -8 R0000025 8
 c260 R0000054 -8 R0000026 8
 c261 R0000054 -8 R0000027 4
 c262 R0000054 -8 R0000028 4
 c263 R0000054 -8 R0000029 2
 c264 R0000054 -8 R0000030 2
 c265 R0000054 -8 R0000031 2
 c266 R0000054 -8 R0000032 2
 c267 R0000054 -8 R0000033 2
 c268 R0000054 -8 R0000034 2
 c269 R0000054 -32 R0000035 8
 c270 R0000054 -32 R0000036 8
 c271 R0000054 -32 R0000037 8
 c272 R0000054 -32 R0000038 8
 c273 R0000054 -8 R0000039 4
 c274 R0000054 -16 R0000040 8
 c275 R0000054 -16 R0000041 8
 c276 R0000054 -32 R0000042 8
 c277 R0000054 -32 R0000043 8
 c278 R0000054 -8 R0000044 2
 c279 R0000054 -12 R0000045 2
 c280 R0000054 -12 R0000046 2
 c281 R0000054 -12 R0000047 2
 c282 R0000054 -12 R0000048 2
 c283 R0000055 -4 R0000001 1
 c284 R0000055 -16 R0000002 4
 c285 R0000055 -16 R0000003 4
 c286 R0000055 -16 R0000004 4
 c287 R0000055 -16 R0000005 8
 c288 R0000055 -4 R0000006 4
 c289 R0000055 -16 R0000007 8
 c290 R0000055 -16 R0000008 4
 c291 R0000055 -16 R0000009 4
 c292 R0000055 -24 R0000010 4
 c293 R0000055 -16 R0000011 4
 c294 R0000055 -16 R0000012 4
 c295 R0000055 -16 R0000013 4
 c296 R0000055 -16 R0000014 4
 c297 R0000055 -16 R0000015 4
 c298 R0000055 -12 R0000016 2
 c299 R0000055 -12 R0000017 2
 c300 R0000055 -12 R0000018 2
 c301 R0000055 -24 R0000019 4
 c302 R0000055 -24 R0000020 4
 c303 R0000055 -24 R0000021 4
 c304 R0000055 -16 R0000022 4
 c305 R0000055 -16 R0000023 4
 c306 R0000055 -16 R0000024 4
 c307 R0000055 -16 R0000025 4
 c308 R0000055 -16 R0000026 4
 c309 R0000055 -16 R0000027 4
 c310 R0000055 -16 R0000028 4
 c311 R0000055 -16 R0000029 4
 c312 R0000055 -16 R0000030 4
 c313 R0000055 -24 R0000031 4
 c314 R0000055 -24 R0000032 4
 c315 R0000055 -48 R0000033 8
 c316 R0000055 -48 R0000034 8
 c317 R0000055 -12 R0000035 2
 c318 R0000055 -12 R0000036 2
 c319 R0000055 -12 R0000037 2
 c320 R0000055 -12 R0000038 2
 c321 R0000055 -16 R0000039 4
 c322 R0000055 -32 R0000040 8
 c323 R0000055 -32 R0000041 8
 c324 R0000055 -32 R0000042 8
 c325 R0000055 -32 R0000043 8
 c326 R0000055 -16 R0000044 4
 c327 R0000055 -16 R0000045 4
 c328 R0000055 -16 R0000046 4
 c329 R0000055 -16 R0000047 4
 c330 R0000055 -16 R0000048 4
 c331 R0000056 -4 R0000001 1
 c332 R0000056 -16 R0000002 4
 c333 R0000056 -16 R0000003 4
 c334 R0000056 -16 R0000004 4
 c335 R0000056 -16 R0000005 8
 c336 R0000056 -16 R0000006 4
 c337 R0000056 -64 R0000007 16
 c338 R0000056 -24 R0000008 4
 c339 R0000056 -24 R0000009 4
 c340 R0000056 -24 R0000010 4
 c341 R0000056 -24 R0000011 4
 c342 R0000056 -16 R0000012 2
 c343 R0000056 -16 R0000013 2
 c344 R0000056 -16 R0000014 2
 c345 R0000056 -16 R0000015 2
 c346 R0000056 -16 R0000016 2
 c347 R0000056 -12 R0000017 2
 c348 R0000056 -12 R0000018 2
 c349 R0000056 -24 R0000019 4
 c350 R0000056 -24 R0000020 4
 c351 R0000056 -16 R0000021 4
 c352 R0000056 -16 R0000022 4
 c353 R0000056 -64 R0000023 32
 c354 R0000056 -16 R0000024 8
 c355 R0000056 -16 R0000025 8
 c356 R0000056 -16 R0000026 8
 c357 R0000056 -16 R0000027 4
 c358 R0000056 -16 R0000028 4
 c359 R0000056 -16 R0000029 4
 c360 R0000056 -16 R0000030 4
 c361 R0000056 -16 R0000031 4
 c362 R0000056 -16 R0000032 4
 c363 R0000056 -16 R0000033 4
 c364 R0000056 -48 R0000034 8
 c365 R0000056 -12 R0000035 2
 c366 R0000056 -12 R0000036 2
 c367 R0000056 -12 R0000037 2
 c368 R0000056 -12 R0000038 2
 c369 R0000056 -24 R0000039 4
 c370 R0000056 -12 R0000040 2
 c371 R0000056 -12 R0000041 2
 c372 R0000056 -12 R0000042 2
 c373 R0000056 -12 R0000043 2
 c374 R0000056 -16 R0000044 4
 c375 R0000056 -16 R0000045 4
 c376 R0000056 -16 R0000046 8
 c377 R0000056 -4 R0000047 4
 c378 R0000056 -4 R0000048 4
 c379 R0000057 -4 R0000001 1
 c380 R0000057 -16 R0000002 4
 c381 R0000057 -48 R0000003 8
 c382 R0000057 -48 R0000004 8
 c383 R0000057 -48 R0000005 8
 c384 R0000057 -24 R0000006 4
 c385 R0000057 -16 R0000007 4
 c386 R0000057 -16 R0000008 4
 c387 R0000057 -16 R0000009 8
 c388 R0000057 -16 R0000010 8
 c389 R0000057 -16 R0000011 8
 c390 R0000057 -16 R0000012 8
 c391 R0000057 -16 R0000013 8
 c392 R0000057 -16 R0000014 8
 c393 R0000057 -16 R0000015 4
 c394 R0000057 -16 R0000016 4
 c395 R0000057 -32 R0000017 8
 c396 R0000057 -16 R0000018 4
 c397 R0000057 -16 R0000019 4
 c398 R0000057 -16 R0000020 4
 c399 R0000057 -16 R0000021 4
 c400 R0000057 -24 R0000022 4
 c401 R0000057 -24 R0000023 4
 c402 R0000057 -24 R0000024 4
 c403 R0000057 -48 R0000025 8
 c404 R0000057 -16 R0000026 4
 c405 R0000057 -16 R0000027 4
 c406 R0000057 -16 R0000028 8
 c407 R0000057 -16 R0000029 8
 c408 R0000057 -16 R0000030 4
 c409 R0000057 -16 R0000031 4
 c410 R0000057 -16 R0000032 4
 c411 R0000057 -16 R0000033 4
 c412 R0000057 -16 R0000034 4
 c413 R0000057 -32 R0000035 8
 c414 R0000057 -32 R0000036 8
 c415 R0000057 -32 R0000037 8
 c416 R0000057 -48 R0000038 8
 c417 R0000057 -48 R0000039 8
 c418 R0000057 -12 R0000040 2
 c419 R0000057 -12 R0000041 2
 c420 R0000057 -12 R0000042 2
 c421 R0000057 -12 R0000043 2
 c422 R0000057 -16 R0000044 4
 c423 R0000057 -16 R0000045 4
 c424 R0000057 -16 R0000046 4
 c425 R0000057 -16 R0000047 4
 c426 R0000057 -16 R0000048 4
 c427 R0000058 -2 R0000001 2
 c428 R0000058 -4 R0000002 2
 c429 R0000058 -4 R0000003 2
 c430 R0000058 -4 R0000004 1
 c431 R0000058 -4 R0000005 1
 c432 R0000058 -4 R0000006 1
 c433 R0000058 -4 R0000007 1
 c434 R0000058 -4 R0000008 1
 c435 R0000058 -4 R0000009 1
 c436 R0000058 -4 R0000010 1
 c437 R0000058 -4 R0000011 1
 c438 R0000058 -4 R0000012 1
 c439 R0000058 -4 R0000013 2
 c440 R0000058 -4 R0000014 2
 c441 R0000058 -4 R0000015 2
 c442 R0000058 -4 R0000016 2
 c443 R0000058 -4 R0000017 1
 c444 R0000058 -4 R0000018 1
 c445 R0000058 -4 R0000019 1
 c446 R0000058 -4 R0000020 1
 c447 R0000058 -4 R0000021 1
 c448 R0000058 -8 R0000022 2
 c449 R0000058 -4 R0000023 1
 c450 R0000058 -4 R0000024 1
 c451 R0000058 -4 R0000025 1
 c452 R0000058 -4 R0000026 2
 c453 R0000058 -4 R0000027 4
 c454 R0000058 -4 R0000029 2
 c455 R0000058 -4 R0000030 1
 c456 R0000058 -4 R0000031 1
 c457 R0000058 -6 R0000032 1
 c458 R0000058 -6 R0000033 1
 c459 R0000058 -6 R0000034 1
 c460 R0000058 -6 R0000035 1
 c461 R0000058 -8 R0000036 1
 c462 R0000058 -8 R0000037 1
 c463 R0000058 -8 R0000038 1
 c464 R0000058 -8 R0000039 1
 c465 R0000058 -8 R0000040 1
 c466 R0000058 -8 R0000041 1
 c467 R0000058 -8 R0000042 1
 c468 R0000058 -6 R0000043 1
 c469 R0000058 -6 R0000044 1
 c470 R0000058 -6 R0000045 1
 c471 R0000058 -6 R0000046 1
 c472 R0000058 -6 R0000047 1
 c473 R0000058 -4 R0000048 1
 c474 R0000059 -4 R0000002 1
 c475 R0000059 -48 R0000003 8
 c476 R0000059 -48 R0000004 8
 c477 R0000059 -8 R0000005 2
 c478 R0000059 -16 R0000006 8
 c479 R0000059 -8 R0000007 2
 c480 R0000059 -32 R0000008 8
 c481 R0000059 -8 R0000009 4
 c482 R0000059 -8 R0000010 4
 c483 R0000059 -32 R0000011 8
 c484 R0000059 -32 R0000012 8
 c485 R0000059 -24 R0000013 4
 c486 R0000059 -24 R0000014 4
 c487 R0000059 -24 R0000015 4
 c488 R0000059 -12 R0000016 2
 c489 R0000059 -12 R0000017 2
 c490 R0000059 -12 R0000018 2
 c491 R0000059 -24 R0000019 4
 c492 R0000059 -32 R0000020 8
 c493 R0000059 -8 R0000021 4
 c494 R0000059 -8 R0000022 4
 c495 R0000059 -32 R0000023 8
 c496 R0000059 -32 R0000024 8
 c497 R0000059 -16 R0000025 8
 c498 R0000059 -16 R0000026 8
 c499 R0000059 -8 R0000027 2
 c500 R0000059 -8 R0000028 2
 c501 R0000059 -8 R0000029 2
 c502 R0000059 -32 R0000030 8
 c503 R0000059 -8 R0000031 4
 c504 R0000059 -8 R0000032 4
 c505 R0000059 -8 R0000033 2
 c506 R0000059 -48 R0000034 8
 c507 R0000059 -32 R0000035 8
 c508 R0000059 -32 R0000036 8
 c509 R0000059 -12 R0000037 2
 c510 R0000059 -12 R0000038 2
 c511 R0000059 -48 R0000039 8
 c512 R0000059 -12 R0000040 2
 c513 R0000059 -32 R0000041 8
 c514 R0000059 -12 R0000042 2
 c515 R0000059 -12 R0000043 2
 c516 R0000059 -48 R0000044 8
 c517 R0000059 -48 R0000045 8
 c518 R0000059 -32 R0000046 4
 c519 R0000059 -32 R0000047 4
 c520 R0000059 -32 R0000048 4
 c521 R0000060 -6 R0000001 1
 c522 R0000060 -24 R0000002 4
 c523 R0000060 -64 R0000003 8
 c524 R0000060 -64 R0000004 8
 c525 R0000060 -64 R0000005 8
 c526 R0000060 -64 R0000006 8
 c527 R0000060 -64 R0000007 8
 c528 R0000060 -24 R0000008 4
 c529 R0000060 -24 R0000009 4
 c530 R0000060 -24 R0000010 4
 c531 R0000060 -64 R0000011 16
 c532 R0000060 -64 R0000012 16
 c533 R0000060 -32 R0000013 16
 c534 R0000060 -32 R0000014 16
 c535 R0000060 -32 R0000015 16
 c536 R0000060 -64 R0000016 32
 c537 R0000060 -4 R0000017 2
 c538 R0000060 -64 R0000018 32
 c539 R0000060 -32 R0000019 16
 c540 R0000060 -32 R0000020 16
 c541 R0000060 -64 R0000021 16
 c542 R0000060 -64 R0000022 16
 c543 R0000060 -64 R0000023 16
 c544 R0000060 -24 R0000024 4
 c545 R0000060 -24 R0000025 4
 c546 R0000060 -24 R0000026 4
 c547 R0000060 -24 R0000027 4
 c548 R0000060 -24 R0000028 4
 c549 R0000060 -24 R0000029 4
 c550 R0000060 -24 R0000030 4
 c551 R0000060 -32 R0000031 4
 c552 R0000060 -32 R0000032 4
 c553 R0000060 -64 R0000033 8
 c554 R0000060 -24 R0000034 4
 c555 R0000060 -48 R0000035 8
 c556 R0000060 -48 R0000036 8
 c557 R0000060 -48 R0000037 8
 c558 R0000060 -48 R0000038 8
 c559 R0000060 -24 R0000039 4
 c560 R0000060 -48 R0000040 8
 c561 R0000060 -128 R0000041 16
 c562 R0000060 -128 R0000042 16
 c563 R0000060 -48 R0000043 8
 c564 R0000060 -24 R0000044 4
 c565 R0000060 -24 R0000045 4
 c566 R0000060 -24 R0000046 4
 c567 R0000060 -32 R0000047 8
 c568 R0000060 -24 R0000048 4
 c569 R0000061 -6 R0000001 1
 c570 R0000061 -24 R0000002 4
 c571 R0000061 -32 R0000003 8
 c572 R0000061 -32 R0000004 8
 c573 R0000061 -24 R0000005 4
 c574 R0000061 -24 R0000006 4
 c575 R0000061 -24 R0000007 4
 c576 R0000061 -24 R0000008 4
 c577 R0000061 -24 R0000009 4
 c578 R0000061 -24 R0000010 4
 c579 R0000061 -24 R0000011 4
 c580 R0000061 -24 R0000012 4
 c581 R0000061 -32 R0000013 4
 c582 R0000061 -32 R0000014 4
 c583 R0000061 -32 R0000015 4
 c584 R0000061 -24 R0000016 4
 c585 R0000061 -48 R0000017 8
 c586 R0000061 -24 R0000018 4
 c587 R0000061 -64 R0000019 16
 c588 R0000061 -32 R0000020 16
 c589 R0000061 -64 R0000021 16
 c590 R0000061 -64 R0000022 16
 c591 R0000061 -64 R0000023 16
 c592 R0000061 -64 R0000024 32
 c593 R0000061 -4 R0000025 4
 c594 R0000061 -4 R0000026 4
 c595 R0000061 -32 R0000027 8
 c596 R0000061 -32 R0000028 8
 c597 R0000061 -32 R0000029 8
 c598 R0000061 -64 R0000030 16
 c599 R0000061 -64 R0000031 16
 c600 R0000061 -24 R0000032 4
 c601 R0000061 -24 R0000033 4
 c602 R0000061 -24 R0000034 4
 c603 R0000061 -48 R0000035 8
 c604 R0000061 -48 R0000036 8
 c605 R0000061 -48 R0000037 8
 c606 R0000061 -48 R0000038 8
 c607 R0000061 -8 R0000039 2
 c608 R0000061 -8 R0000040 4
 c609 R0000061 -4 R0000042 2
 c610 R0000061 -16 R0000043 4
 c611 R0000061 -32 R0000044 8
 c612 R0000061 -32 R0000045 8
 c613 R0000061 -32 R0000046 8
 c614 R0000061 -32 R0000047 8
 c615 R0000061 -32 R0000048 8
 c616 R0000062 -8 R0000001 1
 c617 R0000062 -32 R0000002 4
 c618 R0000062 -32 R0000003 4
 c619 R0000062 -96 R0000004 16
 c620 R0000062 -96 R0000005 16
 c621 R0000062 -96 R0000006 16
 c622 R0000062 -32 R0000007 4
 c623 R0000062 -96 R0000008 16
 c624 R0000062 -96 R0000009 16
 c625 R0000062 -32 R0000010 8
 c626 R0000062 -32 R0000011 8
 c627 R0000062 -32 R0000012 8
 c628 R0000062 -32 R0000013 8
 c629 R0000062 -32 R0000014 16
 c630 R0000062 -96 R0000015 16
 c631 R0000062 -48 R0000016 8
 c632 R0000062 -64 R0000017 8
 c633 R0000062 -32 R0000018 4
 c634 R0000062 -32 R0000019 4
 c635 R0000062 -96 R0000020 16
 c636 R0000062 -96 R0000021 16
 c637 R0000062 -96 R0000022 16
 c638 R0000062 -96 R0000023 16
 c639 R0000062 -96 R0000024 16
 c640 R0000062 -192 R0000025 32
 c641 R0000062 -32 R0000026 4
 c642 R0000062 -32 R0000027 4
 c643 R0000062 -32 R0000028 4
 c644 R0000062 -32 R0000029 4
 c645 R0000062 -32 R0000030 4
 c646 R0000062 -32 R0000031 4
 c647 R0000062 -96 R0000032 16
 c648 R0000062 -96 R0000033 16
 c649 R0000062 -96 R0000034 16
 c650 R0000062 -24 R0000035 4
 c651 R0000062 -4 R0000036 2
 c652 R0000062 -16 R0000037 4
 c653 R0000062 -16 R0000038 4
 c654 R0000062 -8 R0000039 2
 c655 R0000062 -4 R0000040 2
 c656 R0000062 -16 R0000041 4
 c657 R0000062 -24 R0000042 4
 c658 R0000062 -64 R0000043 8
 c659 R0000062 -96 R0000044 16
 c660 R0000062 -96 R0000045 16
 c661 R0000062 -96 R0000046 16
 c662 R0000062 -96 R0000047 16
 c663 R0000062 -96 R0000048 16
 c664 R0000063 -8 R0000001 1
 c665 R0000063 -32 R0000002 4
 c666 R0000063 -32 R0000003 4
 c667 R0000063 -32 R0000004 4
 c668 R0000063 -32 R0000005 4
 c669 R0000063 -32 R0000006 4
 c670 R0000063 -32 R0000007 4
 c671 R0000063 -64 R0000008 8
 c672 R0000063 -64 R0000009 8
 c673 R0000063 -64 R0000010 8
 c674 R0000063 -64 R0000011 8
 c675 R0000063 -64 R0000012 8
 c676 R0000063 -32 R0000013 4
 c677 R0000063 -192 R0000014 32
 c678 R0000063 -192 R0000015 32
 c679 R0000063 -48 R0000016 8
 c680 R0000063 -24 R0000017 4
 c681 R0000063 -32 R0000018 4
 c682 R0000063 -64 R0000019 8
 c683 R0000063 -96 R0000020 16
 c684 R0000063 -96 R0000021 16
 c685 R0000063 -32 R0000022 8
 c686 R0000063 -32 R0000024 16
 c687 R0000063 -32 R0000025 8
 c688 R0000063 -32 R0000026 8
 c689 R0000063 -16 R0000027 8
 c690 R0000063 -16 R0000028 8
 c691 R0000063 -64 R0000029 16
 c692 R0000063 -128 R0000030 32
 c693 R0000063 -128 R0000031 32
 c694 R0000063 -128 R0000032 32
 c695 R0000063 -16 R0000033 8
 c696 R0000063 -8 R0000034 4
 c697 R0000063 -16 R0000035 4
 c698 R0000063 -24 R0000036 4
 c699 R0000063 -24 R0000037 4
 c700 R0000063 -64 R0000038 8
 c701 R0000063 -12 R0000039 2
 c702 R0000063 -24 R0000040 4
 c703 R0000063 -16 R0000041 4
 c704 R0000063 -4 R0000042 2
 c705 R0000063 -4 R0000043 2
 c706 R0000063 -32 R0000044 8
 c707 R0000063 -96 R0000045 16
 c708 R0000063 -96 R0000046 16
 c709 R0000063 -192 R0000047 32
 c710 R0000063 -192 R0000048 32
 c711 R0000064 -8 R0000001 1
 c712 R0000064 -8 R0000002 1
 c713 R0000064 -8 R0000003 1
 c714 R0000064 -8 R0000004 1
 c715 R0000064 -6 R0000005 1
 c716 R0000064 -4 R0000006 1
 c717 R0000064 -6 R0000007 1
 c718 R0000064 -8 R0000008 1
 c719 R0000064 -8 R0000009 1
 c720 R0000064 -8 R0000010 1
 c721 R0000064 -8 R0000011 1
 c722 R0000064 -8 R0000012 1
 c723 R0000064 -8 R0000013 1
 c724 R0000064 -8 R0000014 1
 c725 R0000064 -8 R0000015 1
 c726 R0000064 -16 R0000016 2
 c727 R0000064 -8 R0000017 1
 c728 R0000064 -16 R0000018 2
 c729 R0000064 -8 R0000019 1
 c730 R0000064 -8 R0000020 1
 c731 R0000064 -6 R0000021 1
 c732 R0000064 -6 R0000022 1
 c733 R0000064 -4 R0000023 1
 c734 R0000064 -4 R0000024 1
 c735 R0000064 -6 R0000025 1
 c736 R0000064 -6 R0000026 1
 c737 R0000064 -6 R0000027 1
 c738 R0000064 -6 R0000028 1
 c739 R0000064 -6 R0000029 1
 c740 R0000064 -8 R0000030 1
 c741 R0000064 -8 R0000031 1
 c742 R0000064 -8 R0000032 1
 c743 R0000064 -8 R0000033 1
 c744 R0000064 -8 R0000034 1
 c745 R0000064 -8 R0000035 1
 c746 R0000064 -8 R0000036 1
 c747 R0000064 -6 R0000037 1
 c748 R0000064 -6 R0000038 1
 c749 R0000064 -2 R0000039 1
 c750 R0000064 -6 R0000040 1
 c751 R0000064 -8 R0000041 1
 c752 R0000064 -8 R0000042 1
 c753 R0000064 -8 R0000043 1
 c754 R0000064 -8 R0000044 1
 c755 R0000064 -8 R0000045 1
 c756 R0000064 -8 R0000046 1
 c757 R0000064 -6 R0000047 1
 c758 R0000064 -8 R0000048 1
 c759 R0000001 4
 c760 R0000010 8
 c761 R0000011 8
 c762 R0000012 8
 c763 R0000013 8
 c764 R0000017 2
 c765 R0000023 8
 c766 R0000023 8
 c767 R0000028 4
 c768 R0000041 4
 c769 R0000049 16
 c770 R0000050 16
 c771 R0000051 8
 c772 R0000052 16
 c773 R0000053 16
 c774 R0000054 8
 c775 R0000055 16
 c776 R0000056 16
 c777 R0000057 16
 c778 R0000058 4
 c779 R0000059 16
 c780 R0000060 16
 c781 R0000061 16
 c782 R0000062 32
 c783 R0000063 32
 c784 R0000064 1
RHS
 RHS1 R0000001 1 R0000002 1
 RHS1 R0000003 1 R0000004 1
 RHS1 R0000005 1 R0000006 1
 RHS1 R0000007 1 R0000008 1
 RHS1 R0000009 1 R0000010 1
 RHS1 R0000011 1 R0000012 1
 RHS1 R0000013 1 R0000014 1
 RHS1 R0000015 1 R0000016 1
 RHS1 R0000017 1 R0000018 1
 RHS1 R0000019 1 R0000020 1
 RHS1 R0000021 1 R0000022 1
 RHS1 R0000023 1 R0000024 1
 RHS1 R0000025 1 R0000026 1
 RHS1 R0000027 1 R0000028 1
 RHS1 R0000029 1 R0000030 1
 RHS1 R0000031 1 R0000032 1
 RHS1 R0000033 1 R0000034 1
 RHS1 R0000035 1 R0000036 1
 RHS1 R0000037 1 R0000038 1
 RHS1 R0000039 1 R0000040 1
 RHS1 R0000041 1 R0000042 1
 RHS1 R0000043 1 R0000044 1
 RHS1 R0000045 1 R0000046 1
 RHS1 R0000047 1 R0000048 1
BOUNDS
 UP BND1 c0 192
 UP BND1 c1 0.25
 UP BND1 c2 1
 UP BND1 c3 0.5
 UP BND1 c4 1
 UP BND1 c5 1
 UP BND1 c6 1
 UP BND1 c7 0.5
 UP BND1 c8 1
 UP BND1 c9 1
 UP BND1 c10 0.125
 UP BND1 c11 0.125
 UP BND1 c12 0.125
 UP BND1 c13 0.125
 UP BND1 c14 0.5
 UP BND1 c15 0.5
 UP BND1 c16 0.5
 UP BND1 c17 0.5
 UP BND1 c18 1
 UP BND1 c19 1
 UP BND1 c20 0.5
 UP BND1 c21 1
 UP BND1 c22 0.125
 UP BND1 c23 0.5
 UP BND1 c24 0.5
 UP BND1 c25 0.125
 UP BND1 c26 1
 UP BND1 c27 0.25
 UP BND1 c28 1
 UP BND1 c29 0.25
 UP BND1 c30 0.25
 UP BND1 c31 0.25
 UP BND1 c32 1
 UP BND1 c33 1
 UP BND1 c34 1
 UP BND1 c35 1
 UP BND1 c36 1
 UP BND1 c37 1
 UP BND1 c38 1
 UP BND1 c39 1
 UP BND1 c40 0.5
 UP BND1 c41 0.5
 UP BND1 c42 0.5
 UP BND1 c43 0.125
 UP BND1 c44 0.0625
 UP BND1 c45 0.0625
 UP BND1 c46 1
 UP BND1 c47 1
 UP BND1 c48 0.03125
 UP BND1 c49 0.25
 UP BND1 c50 0.125
 UP BND1 c51 1
 UP BND1 c52 0.25
 UP BND1 c53 0.25
 UP BND1 c54 0.25
 UP BND1 c55 0.125
 UP BND1 c56 0.125
 UP BND1 c57 0.125
 UP BND1 c58 0.125
 UP BND1 c59 0.125
 UP BND1 c60 0.125
 UP BND1 c61 0.125
 UP BND1 c62 0.125
 UP BND1 c63 0.5
 UP BND1 c64 0.5
 UP BND1 c65 0.25
 UP BND1 c66 0.125
 UP BND1 c67 0.125
 UP BND1 c68 0.03125
 UP BND1 c69 0.125
 UP BND1 c70 0.125
 UP BND1 c71 0.0625
 UP BND1 c72 0.125
 UP BND1 c73 0.25
 UP BND1 c74 0.125
 UP BND1 c75 0.125
 UP BND1 c76 0.25
 UP BND1 c77 0.125
 UP BND1 c78 0.125
 UP BND1 c79 0.125
 UP BND1 c80 0.125
 UP BND1 c81 0.25
 UP BND1 c82 0.125
 UP BND1 c83 0.0625
 UP BND1 c84 0.0625
 UP BND1 c85 0.125
 UP BND1 c86 0.25
 UP BND1 c87 0.125
 UP BND1 c88 0.125
 UP BND1 c89 0.125
 UP BND1 c90 0.125
 UP BND1 c91 0.125
 UP BND1 c92 0.125
 UP BND1 c93 0.25
 UP BND1 c94 0.25
 UP BND1 c95 0.25
 UP BND1 c96 1
 UP BND1 c97 0.5
 UP BND1 c98 0.5
 UP BND1 c99 0.5
 UP BND1 c100 0.5
 UP BND1 c101 0.5
 UP BND1 c102 0.5
 UP BND1 c103 1
 UP BND1 c104 1
 UP BND1 c105 1
 UP BND1 c106 1
 UP BND1 c107 0.5
 UP BND1 c108 0.5
 UP BND1 c109 0.5
 UP BND1 c110 0.5
 UP BND1 c111 0.5
 UP BND1 c112 0.125
 UP BND1 c113 0.5
 UP BND1 c114 0.5
 UP BND1 c115 0.25
 UP BND1 c116 0.0625
 UP BND1 c117 0.125
 UP BND1 c118 0.125
 UP BND1 c119 0.25
 UP BND1 c120 0.5
 UP BND1 c121 0.5
 UP BND1 c122 0.5
 UP BND1 c123 0.5
 UP BND1 c124 1
 UP BND1 c125 0.5
 UP BND1 c126 0.5
 UP BND1 c127 0.25
 UP BND1 c128 0.25
 UP BND1 c129 0.125
 UP BND1 c130 0.125
 UP BND1 c131 0.125
 UP BND1 c132 0.125
 UP BND1 c133 0.25
 UP BND1 c134 0.125
 UP BND1 c135 0.125
 UP BND1 c136 0.125
 UP BND1 c137 0.125
 UP BND1 c138 0.125
 UP BND1 c139 0.25
 UP BND1 c140 0.5
 UP BND1 c141 0.5
 UP BND1 c142 0.5
 UP BND1 c143 1
 UP BND1 c144 0.25
 UP BND1 c145 0.25
 UP BND1 c146 0.25
 UP BND1 c147 0.25
 UP BND1 c148 0.125
 UP BND1 c149 0.25
 UP BND1 c150 0.125
 UP BND1 c151 0.25
 UP BND1 c152 0.25
 UP BND1 c153 0.25
 UP BND1 c154 0.25
 UP BND1 c155 0.25
 UP BND1 c156 0.25
 UP BND1 c157 0.25
 UP BND1 c158 0.5
 UP BND1 c159 0.5
 UP BND1 c160 0.5
 UP BND1 c161 0.0625
 UP BND1 c162 0.25
 UP BND1 c163 0.25
 UP BND1 c164 0.25
 UP BND1 c165 0.25
 UP BND1 c166 0.25
 UP BND1 c167 0.25
 UP BND1 c168 0.25
 UP BND1 c169 0.125
 UP BND1 c170 0.25
 UP BND1 c171 0.25
 UP BND1 c172 0.25
 UP BND1 c173 0.125
 UP BND1 c174 0.125
 UP BND1 c175 0.25
 UP BND1 c176 0.0625
 UP BND1 c177 0.125
 UP BND1 c178 0.5
 UP BND1 c179 0.5
 UP BND1 c180 0.5
 UP BND1 c181 0.25
 UP BND1 c182 0.125
 UP BND1 c183 0.5
 UP BND1 c184 0.5
 UP BND1 c185 0.5
 UP BND1 c186 0.125
 UP BND1 c187 0.25
 UP BND1 c188 0.125
 UP BND1 c189 0.125
 UP BND1 c190 0.125
 UP BND1 c191 1
 UP BND1 c192 0.25
 UP BND1 c193 0.0625
 UP BND1 c194 0.25
 UP BND1 c195 0.125
 UP BND1 c196 0.125
 UP BND1 c197 0.125
 UP BND1 c198 0.0625
 UP BND1 c199 0.0625
 UP BND1 c200 0.0625
 UP BND1 c201 0.25
 UP BND1 c202 0.25
 UP BND1 c203 0.25
 UP BND1 c204 0.25
 UP BND1 c205 0.25
 UP BND1 c206 0.25
 UP BND1 c207 0.125
 UP BND1 c208 0.25
 UP BND1 c209 0.25
 UP BND1 c210 0.0625
 UP BND1 c211 0.0625
 UP BND1 c212 0.0625
 UP BND1 c213 0.0625
 UP BND1 c214 0.0625
 UP BND1 c215 0.25
 UP BND1 c216 0.25
 UP BND1 c217 0.25
 UP BND1 c218 0.25
 UP BND1 c219 0.25
 UP BND1 c220 0.0625
 UP BND1 c221 0.0625
 UP BND1 c222 0.0625
 UP BND1 c223 0.25
 UP BND1 c224 0.25
 UP BND1 c225 0.5
 UP BND1 c226 0.5
 UP BND1 c227 0.5
 UP BND1 c228 0.5
 UP BND1 c229 0.5
 UP BND1 c230 0.5
 UP BND1 c231 0.5
 UP BND1 c232 0.5
 UP BND1 c233 0.5
 UP BND1 c234 0.25
 UP BND1 c235 0.25
 UP BND1 c236 0.25
 UP BND1 c237 0.25
 UP BND1 c238 0.25
 UP BND1 c239 1
 UP BND1 c240 0.25
 UP BND1 c241 0.25
 UP BND1 c242 0.25
 UP BND1 c243 0.25
 UP BND1 c244 0.125
 UP BND1 c245 0.125
 UP BND1 c246 0.125
 UP BND1 c247 0.125
 UP BND1 c248 0.125
 UP BND1 c249 0.125
 UP BND1 c250 0.125
 UP BND1 c251 0.125
 UP BND1 c252 0.25
 UP BND1 c253 0.25
 UP BND1 c254 0.25
 UP BND1 c255 0.25
 UP BND1 c256 0.25
 UP BND1 c257 0.25
 UP BND1 c258 0.25
 UP BND1 c259 0.125
 UP BND1 c260 0.125
 UP BND1 c261 0.25
 UP BND1 c262 0.25
 UP BND1 c263 0.5
 UP BND1 c264 0.5
 UP BND1 c265 0.5
 UP BND1 c266 0.5
 UP BND1 c267 0.5
 UP BND1 c268 0.5
 UP BND1 c269 0.125
 UP BND1 c270 0.125
 UP BND1 c271 0.125
 UP BND1 c272 0.125
 UP BND1 c273 0.25
 UP BND1 c274 0.125
 UP BND1 c275 0.125
 UP BND1 c276 0.125
 UP BND1 c277 0.125
 UP BND1 c278 0.5
 UP BND1 c279 0.5
 UP BND1 c280 0.5
 UP BND1 c281 0.5
 UP BND1 c282 0.5
 UP BND1 c283 1
 UP BND1 c284 0.25
 UP BND1 c285 0.25
 UP BND1 c286 0.25
 UP BND1 c287 0.125
 UP BND1 c288 0.25
 UP BND1 c289 0.125
 UP BND1 c290 0.25
 UP BND1 c291 0.25
 UP BND1 c292 0.25
 UP BND1 c293 0.25
 UP BND1 c294 0.25
 UP BND1 c295 0.25
 UP BND1 c296 0.25
 UP BND1 c297 0.25
 UP BND1 c298 0.5
 UP BND1 c299 0.5
 UP BND1 c300 0.5
 UP BND1 c301 0.25
 UP BND1 c302 0.25
 UP BND1 c303 0.25
 UP BND1 c304 0.25
 UP BND1 c305 0.25
 UP BND1 c306 0.25
 UP BND1 c307 0.25
 UP BND1 c308 0.25
 UP BND1 c309 0.25
 UP BND1 c310 0.25
 UP BND1 c311 0.25
 UP BND1 c312 0.25
 UP BND1 c313 0.25
 UP BND1 c314 0.25
 UP BND1 c315 0.125
 UP BND1 c316 0.125
 UP BND1 c317 0.5
 UP BND1 c318 0.5
 UP BND1 c319 0.5
 UP BND1 c320 0.5
 UP BND1 c321 0.25
 UP BND1 c322 0.125
 UP BND1 c323 0.125
 UP BND1 c324 0.125
 UP BND1 c325 0.125
 UP BND1 c326 0.25
 UP BND1 c327 0.25
 UP BND1 c328 0.25
 UP BND1 c329 0.25
 UP BND1 c330 0.25
 UP BND1 c331 1
 UP BND1 c332 0.25
 UP BND1 c333 0.25
 UP BND1 c334 0.25
 UP BND1 c335 0.125
 UP BND1 c336 0.25
 UP BND1 c337 0.0625
 UP BND1 c338 0.25
 UP BND1 c339 0.25
 UP BND1 c340 0.25
 UP BND1 c341 0.25
 UP BND1 c342 0.5
 UP BND1 c343 0.5
 UP BND1 c344 0.5
 UP BND1 c345 0.5
 UP BND1 c346 0.5
 UP BND1 c347 0.5
 UP BND1 c348 0.5
 UP BND1 c349 0.25
 UP BND1 c350 0.25
 UP BND1 c351 0.25
 UP BND1 c352 0.25
 UP BND1 c353 0.03125
 UP BND1 c354 0.125
 UP BND1 c355 0.125
 UP BND1 c356 0.125
 UP BND1 c357 0.25
 UP BND1 c358 0.25
 UP BND1 c359 0.25
 UP BND1 c360 0.25
 UP BND1 c361 0.25
 UP BND1 c362 0.25
 UP BND1 c363 0.25
 UP BND1 c364 0.125
 UP BND1 c365 0.5
 UP BND1 c366 0.5
 UP BND1 c367 0.5
 UP BND1 c368 0.5
 UP BND1 c369 0.25
 UP BND1 c370 0.5
 UP BND1 c371 0.5
 UP BND1 c372 0.5
 UP BND1 c373 0.5
 UP BND1 c374 0.25
 UP BND1 c375 0.25
 UP BND1 c376 0.125
 UP BND1 c377 0.25
 UP BND1 c378 0.25
 UP BND1 c379 1
 UP BND1 c380 0.25
 UP BND1 c381 0.125
 UP BND1 c382 0.125
 UP BND1 c383 0.125
 UP BND1 c384 0.25
 UP BND1 c385 0.25
 UP BND1 c386 0.25
 UP BND1 c387 0.125
 UP BND1 c388 0.125
 UP BND1 c389 0.125
 UP BND1 c390 0.125
 UP BND1 c391 0.125
 UP BND1 c392 0.125
 UP BND1 c393 0.25
 UP BND1 c394 0.25
 UP BND1 c395 0.125
 UP BND1 c396 0.25
 UP BND1 c397 0.25
 UP BND1 c398 0.25
 UP BND1 c399 0.25
 UP BND1 c400 0.25
 UP BND1 c401 0.25
 UP BND1 c402 0.25
 UP BND1 c403 0.125
 UP BND1 c404 0.25
 UP BND1 c405 0.25
 UP BND1 c406 0.125
 UP BND1 c407 0.125
 UP BND1 c408 0.25
 UP BND1 c409 0.25
 UP BND1 c410 0.25
 UP BND1 c411 0.25
 UP BND1 c412 0.25
 UP BND1 c413 0.125
 UP BND1 c414 0.125
 UP BND1 c415 0.125
 UP BND1 c416 0.125
 UP BND1 c417 0.125
 UP BND1 c418 0.5
 UP BND1 c419 0.5
 UP BND1 c420 0.5
 UP BND1 c421 0.5
 UP BND1 c422 0.25
 UP BND1 c423 0.25
 UP BND1 c424 0.25
 UP BND1 c425 0.25
 UP BND1 c426 0.25
 UP BND1 c427 0.5
 UP BND1 c428 0.5
 UP BND1 c429 0.5
 UP BND1 c430 1
 UP BND1 c431 1
 UP BND1 c432 1
 UP BND1 c433 1
 UP BND1 c434 1
 UP BND1 c435 1
 UP BND1 c436 1
 UP BND1 c437 1
 UP BND1 c438 1
 UP BND1 c439 0.5
 UP BND1 c440 0.5
 UP BND1 c441 0.5
 UP BND1 c442 0.5
 UP BND1 c443 1
 UP BND1 c444 1
 UP BND1 c445 1
 UP BND1 c446 1
 UP BND1 c447 1
 UP BND1 c448 0.5
 UP BND1 c449 1
 UP BND1 c450 1
 UP BND1 c451 1
 UP BND1 c452 0.5
 UP BND1 c453 0.25
 UP BND1 c454 0.5
 UP BND1 c455 1
 UP BND1 c456 1
 UP BND1 c457 1
 UP BND1 c458 1
 UP BND1 c459 1
 UP BND1 c460 1
 UP BND1 c461 1
 UP BND1 c462 1
 UP BND1 c463 1
 UP BND1 c464 1
 UP BND1 c465 1
 UP BND1 c466 1
 UP BND1 c467 1
 UP BND1 c468 1
 UP BND1 c469 1
 UP BND1 c470 1
 UP BND1 c471 1
 UP BND1 c472 1
 UP BND1 c473 1
 UP BND1 c474 1
 UP BND1 c475 0.125
 UP BND1 c476 0.125
 UP BND1 c477 0.5
 UP BND1 c478 0.125
 UP BND1 c479 0.5
 UP BND1 c480 0.125
 UP BND1 c481 0.25
 UP BND1 c482 0.25
 UP BND1 c483 0.125
 UP BND1 c484 0.125
 UP BND1 c485 0.25
 UP BND1 c486 0.25
 UP BND1 c487 0.25
 UP BND1 c488 0.5
 UP BND1 c489 0.5
 UP BND1 c490 0.5
 UP BND1 c491 0.25
 UP BND1 c492 0.125
 UP BND1 c493 0.25
 UP BND1 c494 0.25
 UP BND1 c495 0.125
 UP BND1 c496 0.125
 UP BND1 c497 0.125
 UP BND1 c498 0.125
 UP BND1 c499 0.5
 UP BND1 c500 0.5
 UP BND1 c501 0.5
 UP BND1 c502 0.125
 UP BND1 c503 0.25
 UP BND1 c504 0.25
 UP BND1 c505 0.5
 UP BND1 c506 0.125
 UP BND1 c507 0.125
 UP BND1 c508 0.125
 UP BND1 c509 0.5
 UP BND1 c510 0.5
 UP BND1 c511 0.125
 UP BND1 c512 0.5
 UP BND1 c513 0.125
 UP BND1 c514 0.5
 UP BND1 c515 0.5
 UP BND1 c516 0.125
 UP BND1 c517 0.125
 UP BND1 c518 0.25
 UP BND1 c519 0.25
 UP BND1 c520 0.25
 UP BND1 c521 1
 UP BND1 c522 0.25
 UP BND1 c523 0.125
 UP BND1 c524 0.125
 UP BND1 c525 0.125
 UP BND1 c526 0.125
 UP BND1 c527 0.125
 UP BND1 c528 0.25
 UP BND1 c529 0.25
 UP BND1 c530 0.25
 UP BND1 c531 0.0625
 UP BND1 c532 0.0625
 UP BND1 c533 0.0625
 UP BND1 c534 0.0625
 UP BND1 c535 0.0625
 UP BND1 c536 0.03125
 UP BND1 c537 0.5
 UP BND1 c538 0.03125
 UP BND1 c539 0.0625
 UP BND1 c540 0.0625
 UP BND1 c541 0.0625
 UP BND1 c542 0.0625
 UP BND1 c543 0.0625
 UP BND1 c544 0.25
 UP BND1 c545 0.25
 UP BND1 c546 0.25
 UP BND1 c547 0.25
 UP BND1 c548 0.25
 UP BND1 c549 0.25
 UP BND1 c550 0.25
 UP BND1 c551 0.25
 UP BND1 c552 0.25
 UP BND1 c553 0.125
 UP BND1 c554 0.25
 UP BND1 c555 0.125
 UP BND1 c556 0.125
 UP BND1 c557 0.125
 UP BND1 c558 0.125
 UP BND1 c559 0.25
 UP BND1 c560 0.125
 UP BND1 c561 0.0625
 UP BND1 c562 0.0625
 UP BND1 c563 0.125
 UP BND1 c564 0.25
 UP BND1 c565 0.25
 UP BND1 c566 0.25
 UP BND1 c567 0.125
 UP BND1 c568 0.25
 UP BND1 c569 1
 UP BND1 c570 0.25
 UP BND1 c571 0.125
 UP BND1 c572 0.125
 UP BND1 c573 0.25
 UP BND1 c574 0.25
 UP BND1 c575 0.25
 UP BND1 c576 0.25
 UP BND1 c577 0.25
 UP BND1 c578 0.25
 UP BND1 c579 0.25
 UP BND1 c580 0.25
 UP BND1 c581 0.25
 UP BND1 c582 0.25
 UP BND1 c583 0.25
 UP BND1 c584 0.25
 UP BND1 c585 0.125
 UP BND1 c586 0.25
 UP BND1 c587 0.0625
 UP BND1 c588 0.0625
 UP BND1 c589 0.0625
 UP BND1 c590 0.0625
 UP BND1 c591 0.0625
 UP BND1 c592 0.03125
 UP BND1 c593 0.25
 UP BND1 c594 0.25
 UP BND1 c595 0.125
 UP BND1 c596 0.125
 UP BND1 c597 0.125
 UP BND1 c598 0.0625
 UP BND1 c599 0.0625
 UP BND1 c600 0.25
 UP BND1 c601 0.25
 UP BND1 c602 0.25
 UP BND1 c603 0.125
 UP BND1 c604 0.125
 UP BND1 c605 0.125
 UP BND1 c606 0.125
 UP BND1 c607 0.5
 UP BND1 c608 0.25
 UP BND1 c609 0.5
 UP BND1 c610 0.25
 UP BND1 c611 0.125
 UP BND1 c612 0.125
 UP BND1 c613 0.125
 UP BND1 c614 0.125
 UP BND1 c615 0.125
 UP BND1 c616 1
 UP BND1 c617 0.25
 UP BND1 c618 0.25
 UP BND1 c619 0.0625
 UP BND1 c620 0.0625
 UP BND1 c621 0.0625
 UP BND1 c622 0.25
 UP BND1 c623 0.0625
 UP BND1 c624 0.0625
 UP BND1 c625 0.125
 UP BND1 c626 0.125
 UP BND1 c627 0.125
 UP BND1 c628 0.125
 UP BND1 c629 0.0625
 UP BND1 c630 0.0625
 UP BND1 c631 0.125
 UP BND1 c632 0.125
 UP BND1 c633 0.25
 UP BND1 c634 0.25
 UP BND1 c635 0.0625
 UP BND1 c636 0.0625
 UP BND1 c637 0.0625
 UP BND1 c638 0.0625
 UP BND1 c639 0.0625
 UP BND1 c640 0.03125
 UP BND1 c641 0.25
 UP BND1 c642 0.25
 UP BND1 c643 0.25
 UP BND1 c644 0.25
 UP BND1 c645 0.25
 UP BND1 c646 0.25
 UP BND1 c647 0.0625
 UP BND1 c648 0.0625
 UP BND1 c649 0.0625
 UP BND1 c650 0.25
 UP BND1 c651 0.5
 UP BND1 c652 0.25
 UP BND1 c653 0.25
 UP BND1 c654 0.5
 UP BND1 c655 0.5
 UP BND1 c656 0.25
 UP BND1 c657 0.25
 UP BND1 c658 0.125
 UP BND1 c659 0.0625
 UP BND1 c660 0.0625
 UP BND1 c661 0.0625
 UP BND1 c662 0.0625
 UP BND1 c663 0.0625
 UP BND1 c664 1
 UP BND1 c665 0.25
 UP BND1 c666 0.25
 UP BND1 c667 0.25
 UP BND1 c668 0.25
 UP BND1 c669 0.25
 UP BND1 c670 0.25
 UP BND1 c671 0.125
 UP BND1 c672 0.125
 UP BND1 c673 0.125
 UP BND1 c674 0.125
 UP BND1 c675 0.125
 UP BND1 c676 0.25
 UP BND1 c677 0.03125
 UP BND1 c678 0.03125
 UP BND1 c679 0.125
 UP BND1 c680 0.25
 UP BND1 c681 0.25
 UP BND1 c682 0.125
 UP BND1 c683 0.0625
 UP BND1 c684 0.0625
 UP BND1 c685 0.125
 UP BND1 c686 0.0625
 UP BND1 c687 0.125
 UP BND1 c688 0.125
 UP BND1 c689 0.125
 UP BND1 c690 0.125
 UP BND1 c691 0.0625
 UP BND1 c692 0.03125
 UP BND1 c693 0.03125
 UP BND1 c694 0.03125
 UP BND1 c695 0.125
 UP BND1 c696 0.25
 UP BND1 c697 0.25
 UP BND1 c698 0.25
 UP BND1 c699 0.25
 UP BND1 c700 0.125
 UP BND1 c701 0.5
 UP BND1 c702 0.25
 UP BND1 c703 0.25
 UP BND1 c704 0.5
 UP BND1 c705 0.5
 UP BND1 c706 0.125
 UP BND1 c707 0.0625
 UP BND1 c708 0.0625
 UP BND1 c709 0.03125
 UP BND1 c710 0.03125
 UP BND1 c711 1
 UP BND1 c712 1
 UP BND1 c713 1
 UP BND1 c714 1
 UP BND1 c715 1
 UP BND1 c716 1
 UP BND1 c717 1
 UP BND1 c718 1
 UP BND1 c719 1
 UP BND1 c720 1
 UP BND1 c721 1
 UP BND1 c722 1
 UP BND1 c723 1
 UP BND1 c724 1
 UP BND1 c725 1
 UP BND1 c726 0.5
 UP BND1 c727 1
 UP BND1 c728 0.5
 UP BND1 c729 1
 UP BND1 c730 1
 UP BND1 c731 1
 UP BND1 c732 1
 UP BND1 c733 1
 UP BND1 c734 1
 UP BND1 c735 1
 UP BND1 c736 1
 UP BND1 c737 1
 UP BND1 c738 1
 UP BND1 c739 1
 UP BND1 c740 1
 UP BND1 c741 1
 UP BND1 c742 1
 UP BND1 c743 1
 UP BND1 c744 1
 UP BND1 c745 1
 UP BND1 c746 1
 UP BND1 c747 1
 UP BND1 c748 1
 UP BND1 c749 1
 UP BND1 c750 1
 UP BND1 c751 1
 UP BND1 c752 1
 UP BND1 c753 1
 UP BND1 c754 1
 UP BND1 c755 1
 UP BND1 c756 1
 UP BND1 c757 1
 UP BND1 c758 1
 UP BND1 c759 0.25
 UP BND1 c760 0.125
 UP BND1 c761 0.125
 UP BND1 c762 0.125
 UP BND1 c763 0.125
 UP BND1 c764 0.5
 UP BND1 c765 0.125
 UP BND1 c766 0.125
 UP BND1 c767 0.25
 UP BND1 c768 0.25
ENDATA
